NAME: random-19-16591
TYPE: TSP
COMMENT: size=19 seed=16591
DIMENSION: 40
EDGE_WEIGHT_TYPE: EUC_2D
NODE_COORD_SECTION
+0 937 405
-0 937 405
+1 797 848
-1 844 737
+2 803 990
-2 826 316
+3 230 91
-3 75 437
+4 912 670
-4 873 816
+5 951 961
-5 182 695
+6 374 329
-6 834 995
+7 309 434
-7 686 851
+8 554 608
-8 546 188
+9 677 856
-9 215 744
+10 91 405
-10 380 370
+11 212 660
-11 835 115
+12 626 707
-12 339 301
+13 660 584
-13 668 576
+14 347 65
-14 882 85
+15 879 216
-15 904 613
+16 648 958
-16 902 393
+17 320 122
-17 489 440
+18 26 516
-18 732 939
+19 916 766
-19 977 13
PRECEDENCE_SECTION
+0 -0
+1 -1
+2 -2
+3 -3
+4 -4
+5 -5
+6 -6
+7 -7
+8 -8
+9 -9
+10 -10
+11 -11
+12 -12
+13 -13
+14 -14
+15 -15
+16 -16
+17 -17
+18 -18
+19 -19
EOF
